WARNING: for repeatability, setting FPU to use double precision
============================[ Problem Statistics ]=============================
|                                                                             |
|  Number of variables:            50                                         |
|  Number of clauses:             218                                         |
|  Parse time:                   0.00 s                                       |
|                                                                             |
============================[ Search Statistics ]==============================
| Conflicts |          ORIGINAL         |          LEARNT          | Progress |
|           |    Vars  Clauses Literals |    Limit  Clauses Lit/Cl |          |
===============================================================================
===============================================================================
restarts              : 1
conflicts             : 58             (38641 /sec)
decisions             : 70             (0.00 % random) (46636 /sec)
propagations          : 760            (506329 /sec)
conflict literals     : 212            (14.17 % deleted)
Memory used           : 20.00 MB
CPU time              : 0.001501 s

UNSATISFIABLE
